(set-logic QF_UF)
(declare-fun A0 () Bool)
(declare-fun A1 () Bool)
(declare-fun A2 () Bool)
(declare-fun A3 () Bool)
(declare-fun A4 () Bool)
(declare-fun A5 () Bool)
(declare-fun A6 () Bool)
(declare-fun A7 () Bool)
(declare-fun A8 () Bool)
(declare-fun A9 () Bool)
(declare-fun A10 () Bool)
(declare-fun A11 () Bool)
(declare-fun A12 () Bool)
(declare-fun A13 () Bool)
(declare-fun A14 () Bool)
(declare-fun A15 () Bool)
(declare-fun A16 () Bool)
(declare-fun A17 () Bool)
(declare-fun A18 () Bool)
(declare-fun A19 () Bool)
(declare-fun A20 () Bool)
(declare-fun A21 () Bool)
(declare-fun A22 () Bool)
(declare-fun A23 () Bool)
(declare-fun A24 () Bool)
(assert (let ((.def_0 (= A15 A0))) (let ((.def_1 (not .def_0))) (let ((.def_2 (and A4 A11))) (let ((.def_3 (not .def_2))) (let ((.def_4 (and .def_3 .def_1))) (let ((.def_5 (not .def_4))) (let ((.def_6 (not A8))) (let ((.def_7 (or .def_6 A17))) (let ((.def_8 (not .def_7))) (let ((.def_9 (not A15))) (let ((.def_10 (not A0))) (let ((.def_11 (and .def_10 .def_9))) (let ((.def_12 (and .def_11 .def_8))) (let ((.def_13 (not .def_12))) (let ((.def_14 (or .def_13 .def_5))) (let ((.def_15 (not .def_14))) (let ((.def_16 (not A23))) (let ((.def_17 (and .def_16 A10))) (let ((.def_18 (not .def_17))) (let ((.def_19 (not A18))) (let ((.def_20 (and A18 .def_19))) (let ((.def_21 (not .def_20))) (let ((.def_22 (= .def_21 .def_18))) (let ((.def_23 (= .def_10 A19))) (let ((.def_24 (not .def_23))) (let ((.def_25 (not A9))) (let ((.def_26 (or .def_9 .def_25))) (let ((.def_27 (and .def_26 .def_24))) (let ((.def_28 (and .def_27 .def_22))) (let ((.def_29 (and .def_28 .def_15))) (let ((.def_30 (not .def_29))) (let ((.def_31 (not A13))) (let ((.def_32 (or .def_31 .def_10))) (let ((.def_33 (not A14))) (let ((.def_34 (not A5))) (let ((.def_35 (or .def_34 .def_33))) (let ((.def_36 (not .def_35))) (let ((.def_37 (or .def_36 .def_32))) (let ((.def_38 (not A21))) (let ((.def_39 (or .def_9 .def_38))) (let ((.def_40 (not A12))) (let ((.def_41 (not A6))) (let ((.def_42 (or .def_41 .def_40))) (let ((.def_43 (not .def_42))) (let ((.def_44 (or .def_43 .def_39))) (let ((.def_45 (and .def_44 .def_37))) (let ((.def_46 (not A16))) (let ((.def_47 (and .def_46 .def_25))) (let ((.def_48 (or A18 A10))) (let ((.def_49 (not .def_48))) (let ((.def_50 (or .def_49 .def_47))) (let ((.def_51 (not A2))) (let ((.def_52 (or A1 .def_51))) (let ((.def_53 (not .def_52))) (let ((.def_54 (or .def_33 .def_51))) (let ((.def_55 (and .def_54 .def_53))) (let ((.def_56 (not .def_55))) (let ((.def_57 (or .def_56 .def_50))) (let ((.def_58 (or .def_57 .def_45))) (let ((.def_59 (or .def_58 .def_30))) (let ((.def_60 (and A6 .def_6))) (let ((.def_61 (not .def_60))) (let ((.def_62 (or A5 A24))) (let ((.def_63 (not .def_62))) (let ((.def_64 (and .def_63 .def_61))) (let ((.def_65 (not A10))) (let ((.def_66 (and .def_65 A16))) (let ((.def_67 (not .def_66))) (let ((.def_68 (or .def_9 A7))) (let ((.def_69 (or .def_68 .def_67))) (let ((.def_70 (or .def_69 .def_64))) (let ((.def_71 (not .def_70))) (let ((.def_72 (or A9 .def_16))) (let ((.def_73 (not .def_72))) (let ((.def_74 (not A7))) (let ((.def_75 (and A14 .def_74))) (let ((.def_76 (not .def_75))) (let ((.def_77 (or .def_76 .def_73))) (let ((.def_78 (or A7 .def_25))) (let ((.def_79 (not A3))) (let ((.def_80 (and .def_79 A2))) (let ((.def_81 (and .def_80 .def_78))) (let ((.def_82 (not .def_81))) (let ((.def_83 (and .def_82 .def_77))) (let ((.def_84 (or .def_83 .def_71))) (let ((.def_85 (not A24))) (let ((.def_86 (or .def_85 .def_33))) (let ((.def_87 (not .def_86))) (let ((.def_88 (not A11))) (let ((.def_89 (or A23 .def_88))) (let ((.def_90 (or .def_89 .def_87))) (let ((.def_91 (not .def_90))) (let ((.def_92 (or .def_88 .def_46))) (let ((.def_93 (and A11 .def_31))) (let ((.def_94 (and .def_93 .def_92))) (let ((.def_95 (not .def_94))) (let ((.def_96 (or .def_95 .def_91))) (let ((.def_97 (not .def_96))) (let ((.def_98 (or .def_51 A11))) (let ((.def_99 (and A4 .def_38))) (let ((.def_100 (not .def_99))) (let ((.def_101 (or .def_100 .def_98))) (let ((.def_102 (or A22 A10))) (let ((.def_103 (not A19))) (let ((.def_104 (and .def_103 A23))) (let ((.def_105 (not .def_104))) (let ((.def_106 (and .def_105 .def_102))) (let ((.def_107 (not .def_106))) (let ((.def_108 (or .def_107 .def_101))) (let ((.def_109 (and .def_108 .def_97))) (let ((.def_110 (or .def_109 .def_84))) (let ((.def_111 (not .def_110))) (let ((.def_112 (and .def_111 .def_59))) (let ((.def_113 (and A24 .def_88))) (let ((.def_114 (not .def_113))) (let ((.def_115 (or A2 .def_25))) (let ((.def_116 (not .def_115))) (let ((.def_117 (and .def_116 .def_114))) (let ((.def_118 (not .def_117))) (let ((.def_119 (or A10 .def_10))) (let ((.def_120 (not .def_119))) (let ((.def_121 (not A1))) (let ((.def_122 (and A3 .def_121))) (let ((.def_123 (= .def_122 .def_120))) (let ((.def_124 (or .def_123 .def_118))) (let ((.def_125 (and A24 A18))) (let ((.def_126 (not .def_125))) (let ((.def_127 (not A17))) (let ((.def_128 (or .def_127 A19))) (let ((.def_129 (or .def_128 .def_126))) (let ((.def_130 (not .def_129))) (let ((.def_131 (and A15 A22))) (let ((.def_132 (and .def_65 A11))) (let ((.def_133 (not .def_132))) (let ((.def_134 (and .def_133 .def_131))) (let ((.def_135 (not .def_134))) (let ((.def_136 (or .def_135 .def_130))) (let ((.def_137 (or .def_136 .def_124))) (let ((.def_138 (and A10 A12))) (let ((.def_139 (or .def_88 A9))) (let ((.def_140 (not .def_139))) (let ((.def_141 (or .def_140 .def_138))) (let ((.def_142 (not .def_141))) (let ((.def_143 (and A12 .def_9))) (let ((.def_144 (and .def_65 .def_10))) (let ((.def_145 (not .def_144))) (let ((.def_146 (and .def_145 .def_143))) (let ((.def_147 (or .def_146 .def_142))) (let ((.def_148 (and .def_19 .def_10))) (let ((.def_149 (not .def_148))) (let ((.def_150 (and A6 .def_38))) (let ((.def_151 (not .def_150))) (let ((.def_152 (and .def_151 .def_149))) (let ((.def_153 (or .def_34 .def_103))) (let ((.def_154 (not .def_153))) (let ((.def_155 (or .def_127 A5))) (let ((.def_156 (not .def_155))) (let ((.def_157 (and .def_156 .def_154))) (let ((.def_158 (not .def_157))) (let ((.def_159 (and .def_158 .def_152))) (let ((.def_160 (not .def_159))) (let ((.def_161 (or .def_160 .def_147))) (let ((.def_162 (not .def_161))) (let ((.def_163 (and .def_162 .def_137))) (let ((.def_164 (or A14 .def_10))) (let ((.def_165 (not .def_164))) (let ((.def_166 (not A20))) (let ((.def_167 (and A21 .def_166))) (let ((.def_168 (not .def_167))) (let ((.def_169 (or .def_168 .def_165))) (let ((.def_170 (and A9 .def_6))) (let ((.def_171 (not .def_170))) (let ((.def_172 (or .def_79 A2))) (let ((.def_173 (not .def_172))) (let ((.def_174 (and .def_173 .def_171))) (let ((.def_175 (not .def_174))) (let ((.def_176 (and .def_175 .def_169))) (let ((.def_177 (not .def_176))) (let ((.def_178 (or .def_79 A10))) (let ((.def_179 (or A15 A22))) (let ((.def_180 (= .def_179 .def_178))) (let ((.def_181 (and A7 A21))) (let ((.def_182 (or A16 A13))) (let ((.def_183 (or .def_182 .def_181))) (let ((.def_184 (and .def_183 .def_180))) (let ((.def_185 (and .def_184 .def_177))) (let ((.def_186 (not .def_185))) (let ((.def_187 (or .def_19 A19))) (let ((.def_188 (not .def_187))) (let ((.def_189 (and A1 A16))) (let ((.def_190 (not .def_189))) (let ((.def_191 (and .def_190 .def_188))) (let ((.def_192 (not .def_191))) (let ((.def_193 (or A9 A1))) (let ((.def_194 (or .def_193 .def_49))) (let ((.def_195 (not .def_194))) (let ((.def_196 (or .def_195 .def_192))) (let ((.def_197 (not .def_196))) (let ((.def_198 (and .def_74 .def_103))) (let ((.def_199 (and .def_34 A1))) (let ((.def_200 (and .def_199 .def_198))) (let ((.def_201 (and A7 A16))) (let ((.def_202 (not .def_201))) (let ((.def_203 (and .def_16 .def_16))) (let ((.def_204 (not .def_203))) (let ((.def_205 (and .def_204 .def_202))) (let ((.def_206 (not .def_205))) (let ((.def_207 (and .def_206 .def_200))) (let ((.def_208 (and .def_207 .def_197))) (let ((.def_209 (not .def_208))) (let ((.def_210 (and .def_209 .def_186))) (let ((.def_211 (or .def_210 .def_163))) (let ((.def_212 (or .def_211 .def_112))) (let ((.def_213 (or A5 A9))) (let ((.def_214 (not .def_213))) (let ((.def_215 (and A12 A6))) (let ((.def_216 (not .def_215))) (let ((.def_217 (or .def_216 .def_214))) (let ((.def_218 (and A20 A21))) (let ((.def_219 (or A20 .def_9))) (let ((.def_220 (not .def_219))) (let ((.def_221 (and .def_220 .def_218))) (let ((.def_222 (or .def_221 .def_217))) (let ((.def_223 (not .def_222))) (let ((.def_224 (or A5 .def_121))) (let ((.def_225 (= .def_10 .def_88))) (let ((.def_226 (not .def_225))) (let ((.def_227 (and .def_226 .def_224))) (let ((.def_228 (not .def_227))) (let ((.def_229 (and A1 .def_25))) (let ((.def_230 (not .def_229))) (let ((.def_231 (not A22))) (let ((.def_232 (and A13 .def_231))) (let ((.def_233 (not .def_232))) (let ((.def_234 (or .def_233 .def_230))) (let ((.def_235 (not .def_234))) (let ((.def_236 (and .def_235 .def_228))) (let ((.def_237 (not .def_236))) (let ((.def_238 (or .def_237 .def_223))) (let ((.def_239 (and A12 .def_10))) (let ((.def_240 (not .def_239))) (let ((.def_241 (and .def_9 .def_231))) (let ((.def_242 (and .def_241 .def_240))) (let ((.def_243 (not .def_242))) (let ((.def_244 (and A14 A2))) (let ((.def_245 (or A6 A19))) (let ((.def_246 (not .def_245))) (let ((.def_247 (or .def_246 .def_244))) (let ((.def_248 (not .def_247))) (let ((.def_249 (or .def_248 .def_243))) (let ((.def_250 (not .def_179))) (let ((.def_251 (or A3 .def_85))) (let ((.def_252 (not .def_251))) (let ((.def_253 (or .def_252 .def_250))) (let ((.def_254 (not .def_253))) (let ((.def_255 (or .def_79 .def_33))) (let ((.def_256 (not .def_255))) (let ((.def_257 (or .def_6 .def_33))) (let ((.def_258 (and .def_257 .def_256))) (let ((.def_259 (not .def_258))) (let ((.def_260 (or .def_259 .def_254))) (let ((.def_261 (not .def_260))) (let ((.def_262 (or .def_261 .def_249))) (let ((.def_263 (not .def_262))) (let ((.def_264 (and .def_263 .def_238))) (let ((.def_265 (and .def_19 A3))) (let ((.def_266 (not .def_265))) (let ((.def_267 (or .def_10 .def_88))) (let ((.def_268 (= .def_267 .def_266))) (let ((.def_269 (not .def_268))) (let ((.def_270 (not A4))) (let ((.def_271 (and .def_46 .def_270))) (let ((.def_272 (not .def_271))) (let ((.def_273 (and A24 .def_31))) (let ((.def_274 (and .def_273 .def_272))) (let ((.def_275 (not .def_274))) (let ((.def_276 (= .def_275 .def_269))) (let ((.def_277 (not .def_276))) (let ((.def_278 (or .def_74 .def_10))) (let ((.def_279 (not .def_278))) (let ((.def_280 (= A5 .def_40))) (let ((.def_281 (not .def_280))) (let ((.def_282 (= .def_281 .def_279))) (let ((.def_283 (not .def_282))) (let ((.def_284 (= .def_10 A17))) (let ((.def_285 (not .def_284))) (let ((.def_286 (and A21 A24))) (let ((.def_287 (not .def_286))) (let ((.def_288 (or .def_287 .def_285))) (let ((.def_289 (or .def_288 .def_283))) (let ((.def_290 (and .def_289 .def_277))) (let ((.def_291 (not .def_290))) (let ((.def_292 (and .def_231 .def_33))) (let ((.def_293 (or A10 A15))) (let ((.def_294 (and .def_293 .def_292))) (let ((.def_295 (= A22 .def_79))) (let ((.def_296 (not .def_295))) (let ((.def_297 (and A23 .def_40))) (let ((.def_298 (not .def_297))) (let ((.def_299 (or .def_298 .def_296))) (let ((.def_300 (and .def_299 .def_294))) (let ((.def_301 (not .def_300))) (let ((.def_302 (and A23 A19))) (let ((.def_303 (and .def_270 .def_103))) (let ((.def_304 (or .def_303 .def_302))) (let ((.def_305 (or .def_65 .def_74))) (let ((.def_306 (not .def_305))) (let ((.def_307 (or A10 .def_127))) (let ((.def_308 (= .def_307 .def_306))) (let ((.def_309 (not .def_308))) (let ((.def_310 (and .def_309 .def_304))) (let ((.def_311 (not .def_310))) (let ((.def_312 (or .def_311 .def_301))) (let ((.def_313 (or .def_312 .def_291))) (let ((.def_314 (not .def_313))) (let ((.def_315 (= .def_314 .def_264))) (let ((.def_316 (and .def_85 .def_16))) (let ((.def_317 (not .def_316))) (let ((.def_318 (and A18 A1))) (let ((.def_319 (or .def_318 .def_317))) (let ((.def_320 (or A2 .def_85))) (let ((.def_321 (and .def_65 A7))) (let ((.def_322 (or .def_321 .def_320))) (let ((.def_323 (not .def_322))) (let ((.def_324 (or .def_323 .def_319))) (let ((.def_325 (not .def_324))) (let ((.def_326 (or A14 A14))) (let ((.def_327 (not .def_326))) (let ((.def_328 (or A12 .def_40))) (let ((.def_329 (or .def_328 .def_327))) (let ((.def_330 (or A10 .def_79))) (let ((.def_331 (or A24 .def_270))) (let ((.def_332 (or .def_331 .def_330))) (let ((.def_333 (not .def_332))) (let ((.def_334 (and .def_333 .def_329))) (let ((.def_335 (or .def_334 .def_325))) (let ((.def_336 (and .def_34 A4))) (let ((.def_337 (not .def_336))) (let ((.def_338 (or .def_166 A23))) (let ((.def_339 (not .def_338))) (let ((.def_340 (or .def_339 .def_337))) (let ((.def_341 (not .def_340))) (let ((.def_342 (and A17 A8))) (let ((.def_343 (and A24 .def_41))) (let ((.def_344 (and .def_343 .def_342))) (let ((.def_345 (not .def_344))) (let ((.def_346 (or .def_345 .def_341))) (let ((.def_347 (and .def_10 .def_74))) (let ((.def_348 (and .def_6 A21))) (let ((.def_349 (not .def_348))) (let ((.def_350 (and .def_349 .def_347))) (let ((.def_351 (not .def_350))) (let ((.def_352 (or A18 A0))) (let ((.def_353 (not .def_352))) (let ((.def_354 (and .def_166 .def_25))) (let ((.def_355 (and .def_354 .def_353))) (let ((.def_356 (and .def_355 .def_351))) (let ((.def_357 (not .def_356))) (let ((.def_358 (and .def_357 .def_346))) (let ((.def_359 (not .def_358))) (let ((.def_360 (or .def_359 .def_335))) (let ((.def_361 (not .def_360))) (let ((.def_362 (or .def_38 A19))) (let ((.def_363 (not .def_362))) (let ((.def_364 (and .def_31 .def_74))) (let ((.def_365 (= .def_364 .def_363))) (let ((.def_366 (not .def_365))) (let ((.def_367 (or A13 A10))) (let ((.def_368 (or A10 .def_41))) (let ((.def_369 (not .def_368))) (let ((.def_370 (or .def_369 .def_367))) (let ((.def_371 (not .def_370))) (let ((.def_372 (or .def_371 .def_366))) (let ((.def_373 (= .def_79 .def_19))) (let ((.def_374 (not .def_373))) (let ((.def_375 (and A17 A9))) (let ((.def_376 (or .def_375 .def_374))) (let ((.def_377 (not .def_376))) (let ((.def_378 (and .def_16 .def_231))) (let ((.def_379 (not .def_378))) (let ((.def_380 (and .def_88 .def_121))) (let ((.def_381 (not .def_380))) (let ((.def_382 (= .def_381 .def_379))) (let ((.def_383 (or .def_382 .def_377))) (let ((.def_384 (and .def_383 .def_372))) (let ((.def_385 (not .def_384))) (let ((.def_386 (and A1 A19))) (let ((.def_387 (= A22 A10))) (let ((.def_388 (not .def_387))) (let ((.def_389 (and .def_388 .def_386))) (let ((.def_390 (not .def_389))) (let ((.def_391 (or A16 A23))) (let ((.def_392 (or A17 .def_33))) (let ((.def_393 (not .def_392))) (let ((.def_394 (= .def_393 .def_391))) (let ((.def_395 (not .def_394))) (let ((.def_396 (= .def_395 .def_390))) (let ((.def_397 (or A13 .def_40))) (let ((.def_398 (and A23 .def_38))) (let ((.def_399 (or .def_398 .def_397))) (let ((.def_400 (or .def_10 A21))) (let ((.def_401 (not .def_400))) (let ((.def_402 (and A14 .def_10))) (let ((.def_403 (not .def_402))) (let ((.def_404 (or .def_403 .def_401))) (let ((.def_405 (or .def_404 .def_399))) (let ((.def_406 (not .def_405))) (let ((.def_407 (and .def_406 .def_396))) (let ((.def_408 (not .def_407))) (let ((.def_409 (and .def_408 .def_385))) (let ((.def_410 (not .def_409))) (let ((.def_411 (or .def_410 .def_361))) (let ((.def_412 (not .def_411))) (let ((.def_413 (or .def_412 .def_315))) (let ((.def_414 (or .def_413 .def_212))) (let ((.def_415 (not .def_414))) .def_415)))))))))))))))))))))))))))))))))))))))))))))))))))))))))))))))))))))))))))))))))))))))))))))))))))))))))))))))))))))))))))))))))))))))))))))))))))))))))))))))))))))))))))))))))))))))))))))))))))))))))))))))))))))))))))))))))))))))))))))))))))))))))))))))))))))))))))))))))))))))))))))))))))))))))))))))))))))))))))))))))))))))))))))))))))))))))))))))))))))))))))))))))))))))))))))))))))))))))))))))))))))))))))))))))
(check-sat)
